letting height be 7
letting length be 7
letting mines_per_box be 2 

letting fixed be
    [
        [17,1,17,17,3,17,17],
        [3,17,2,-1,6,17,4],
        [17,17,17,4,17,17,2],
        [3,4,17,4,17,5,17],
        [17,17,1,17,2,17,2],
        [3,17,2,4,17,4,17],
        [17,3,17,3,17,3,17]
    ]